NAME : traveling-santa-2018-prime-paths.27424.tour
COMMENT : Length = 27424
COMMENT : Found by LKH [Keld Helsgaun] Sun Jun 12 19:59:21 2022
TYPE : TOUR
DIMENSION : 100
TOUR_SECTION
1
50
59
91
84
90
12
42
49
88
98
30
18
5
20
96
93
68
85
37
4
97
65
51
66
3
75
23
94
89
86
15
7
38
61
47
87
60
67
21
2
81
79
33
31
41
39
43
13
82
26
52
62
56
46
6
25
83
34
57
28
76
63
72
55
24
16
70
35
11
100
53
32
19
99
69
71
10
95
58
44
36
54
48
29
92
74
14
78
64
8
40
22
45
27
9
17
73
77
80
-1
EOF
